c WARNING: for repeatability, setting FPU to use double precision
d VARIABLES            26816        
d CONSTRAINTS          98129        
c ============================[ Problem Statistics ]=============================
c |                                                                             |
c |  Number of variables:         26816                                         |
c |  Number of clauses:           98129                                         |
c |  Parse time:                   0.01 s                                       |
c |                                                                             |
c ============================[ Search Statistics ]==============================
c | Conflicts |          ORIGINAL         |          LEARNT          | Progress |
c |           |    Vars  Clauses Literals |    Limit  Clauses Lit/Cl |          |
c ===============================================================================
c |       100 |   17231    73499   181195 |    26949      100     93 | 35.744 % |
c |       250 |   17231    73499   181195 |    29644      250     85 | 35.744 % |
c |       475 |   17231    73499   181195 |    32609      475     91 | 35.744 % |
c |       812 |   17231    73499   181195 |    35869      812    101 | 35.744 % |
c |      1318 |   17231    73499   181195 |    39456     1318    111 | 35.744 % |
c |      2077 |   17231    73499   181195 |    43402     2077    111 | 35.744 % |
c |      3216 |   17231    73499   181195 |    47742     3216    122 | 35.744 % |
c |      4924 |   17231    73499   181195 |    52517     4924    130 | 35.744 % |
c |      7486 |   17228    73484   181159 |    57768     7485    139 | 35.755 % |
c |     11330 |   17228    73484   181159 |    63545    11329    134 | 35.755 % |
c |     17096 |   17228    73484   181159 |    69900    17095    141 | 35.755 % |
c |     25745 |   17228    73484   181159 |    76890    25744    148 | 35.755 % |
c |     38719 |   17228    73484   181159 |    84579    38718    153 | 35.755 % |
c |     58180 |   17228    73484   181159 |    93037    58179    152 | 35.755 % |
c |     87372 |   17225    73470   181125 |   102341    87370    163 | 35.766 % |
c |    131161 |   17225    73470   181125 |   112575    39913    131 | 35.766 % |
c |    196845 |   17225    73470   181125 |   123832   105597    162 | 35.766 % |
c |    295371 |   17225    73470   181125 |   136216    84387    131 | 35.766 % |
c |    443160 |   17225    73470   181125 |   149837   109532    130 | 35.766 % |
c |    664843 |   17225    73470   181125 |   164821    52246    109 | 35.766 % |
c |    997368 |   17225    73470   181125 |   181303    75936    136 | 35.766 % |
c |   1496156 |   17225    73470   181125 |   199434    65638    129 | 35.766 % |
c |   2244338 |   17222    73455   181089 |   219377    56031    125 | 35.777 % |
c |   3366612 |   17221    73451   181079 |   241315   167895    108 | 35.781 % |
c |   5050023 |   17221    73451   181079 |   265446   252212    164 | 35.781 % |
c ===============================================================================
c restarts              : 8191
c conflicts             : 5069334        (2829 /sec)
c decisions             : 10187962       (0.00 % random) (5685 /sec)
c propagations          : 4932763113     (2752314 /sec)
c conflict literals     : 717134809      (28.74 % deleted)
d RESTARTS             8191
d FAILURES             5069334      
d NODES                10187962     
d BACKTRACKS           10187962     
d PROPAGATIONS         4932763113   
d NOGOODSIZE           141.47 
d MEMORY               325.00 
d TIME                 1792.22 

s UNKNOWN
